unsat
(:conflicts            1
 :max-generation       1
 :max-memory           22.61
 :memory               20.86
 :mk-bool-var          521
 :mk-clause            90
 :mk-clause-binary     816
 :num-allocs           2667379
 :num-checks           1
 :quant-instantiations 81
 :rlimit-count         43896
 :time                 0.01)
